n_res = 4;
rc = [ 12, 13, 11, 13 ];
n_tasks = 30;
d = [ 9, 1, 3, 7, 4, 9, 3, 6, 1, 4, 6, 5, 7, 4, 1, 9, 7, 4, 1, 10, 8, 7, 2, 5, 4, 8, 8, 5, 1, 6 ];
rr = [| 12, 12, 12, 12, 12, 12, 12, 12, 12, 12, 12, 12, 12, 12, 12, 12, 12, 12, 12, 12, 12, 12, 12, 12, 12, 12, 12, 12, 12, 12
      | 13, 13, 13, 13, 13, 13, 13, 13, 13, 13, 13, 13, 13, 13, 13, 13, 13, 13, 13, 13, 13, 13, 13, 13, 13, 13, 13, 13, 13, 13
      | 11, 11, 11, 11, 11, 11, 11, 11, 11, 11, 11, 11, 11, 11, 11, 11, 11, 11, 11, 11, 11, 11, 11, 11, 11, 11, 11, 11, 11, 11
      | 13, 13, 13, 13, 13, 13, 13, 13, 13, 13, 13, 13, 13, 13, 13, 13, 13, 13, 13, 13, 13, 13, 13, 13, 13, 13, 13, 13, 13, 13|];
suc = [ { 4, 8, 10 },
       { 7, 14, 21 },
       { 12, 16, 21 },
       { 5, 9, 18 },
       { 6, 12, 17 },
       { 11, 13, 24 },
       { 9, 17, 18 },
       { 12, 14, 25 },
       { 20, 22, 23 },
       { 19, 23, 24 },
       { 15, 22, 26 },
       { 15, 29, 30 },
       { 15, 16, 21 },
       { 16, 18 },
       { 19 },
       { 19, 27 },
       { 24, 26 },
       { 20, 26 },
       { 20 },
       { 28 },
       { 22, 23 },
       { 25, 27 },
       { 29 },
       { 25 },
       { 28, 30 },
       { 27, 28, 29 },
       { 30 },
       {  },
       {  },
       {  } ];
